c FILE /home/rafael/Documents/HappySet/MIHS/inputs/happygen/output/graph_random_k2_p0.5_v100_20241127_083600.txt
c SOURCE This is a random graph formed for the happy graph colouring problem.
c DESCRIPTION It was generated using the problem generator of Rhyd Lewis
c
c GRAPH STATS
c Seed                             = -230937131
c Number of Nodes                  = 100
c Edge probability defined by user = 0.5
c Number of colours k              = 2
c Number of pre-assignments        = 50
c Actual density                   = 0.505455
c 
c The degrees of nodes 1 to 100, respectively, are as follows 
c [65, 63, 61, 59, 58, 57, 56, 56, 56, 56, 56, 56, 56, 55, 55, 55, 55, 55, 54, 54, 54, 54, 54, 54, 54, 53, 
c  53, 53, 53, 53, 53, 52, 52, 52, 52, 52, 52, 51, 51, 51, 51, 51, 51, 51, 51, 51, 51, 51, 50, 50, 50, 
c  49, 49, 49, 49, 49, 49, 49, 49, 49, 49, 48, 48, 48, 48, 48, 48, 48, 48, 48, 48, 48, 47, 47, 47, 47, 
c  47, 47, 46, 46, 46, 46, 46, 46, 46, 45, 45, 45, 45, 44, 44, 43, 43, 42, 41, 41, 40, 40, 38, 37] 
c  
p edge 100 2502 2
e 1 2
e 1 3
e 1 4
e 1 5
e 1 6
e 1 7
e 1 9
e 1 10
e 1 11
e 1 12
e 1 13
e 1 14
e 1 15
e 1 16
e 1 17
e 1 18
e 1 19
e 1 20
e 1 21
e 1 22
e 1 23
e 1 24
e 1 27
e 1 28
e 1 29
e 1 30
e 1 32
e 1 35
e 1 38
e 1 39
e 1 40
e 1 41
e 1 43
e 1 44
e 1 45
e 1 47
e 1 49
e 1 54
e 1 55
e 1 56
e 1 57
e 1 59
e 1 61
e 1 62
e 1 63
e 1 68
e 1 71
e 1 72
e 1 73
e 1 76
e 1 78
e 1 79
e 1 81
e 1 83
e 1 84
e 1 86
e 1 87
e 1 89
e 1 90
e 1 91
e 1 93
e 1 95
e 1 96
e 1 97
e 1 99
e 2 3
e 2 4
e 2 6
e 2 7
e 2 8
e 2 9
e 2 10
e 2 11
e 2 13
e 2 14
e 2 17
e 2 19
e 2 20
e 2 23
e 2 24
e 2 26
e 2 31
e 2 32
e 2 34
e 2 35
e 2 36
e 2 37
e 2 40
e 2 41
e 2 42
e 2 44
e 2 45
e 2 46
e 2 47
e 2 48
e 2 50
e 2 51
e 2 54
e 2 57
e 2 58
e 2 60
e 2 61
e 2 62
e 2 63
e 2 64
e 2 65
e 2 67
e 2 69
e 2 72
e 2 73
e 2 74
e 2 75
e 2 76
e 2 77
e 2 78
e 2 82
e 2 83
e 2 85
e 2 86
e 2 87
e 2 88
e 2 90
e 2 92
e 2 93
e 2 94
e 2 97
e 2 99
e 3 4
e 3 5
e 3 9
e 3 10
e 3 11
e 3 13
e 3 15
e 3 16
e 3 17
e 3 18
e 3 19
e 3 20
e 3 21
e 3 23
e 3 24
e 3 25
e 3 27
e 3 28
e 3 29
e 3 30
e 3 31
e 3 32
e 3 36
e 3 37
e 3 38
e 3 39
e 3 42
e 3 43
e 3 44
e 3 45
e 3 50
e 3 53
e 3 54
e 3 55
e 3 59
e 3 61
e 3 62
e 3 63
e 3 65
e 3 66
e 3 68
e 3 69
e 3 71
e 3 72
e 3 73
e 3 75
e 3 76
e 3 78
e 3 79
e 3 80
e 3 81
e 3 83
e 3 84
e 3 86
e 3 87
e 3 88
e 3 90
e 3 94
e 3 95
e 4 5
e 4 6
e 4 7
e 4 8
e 4 9
e 4 12
e 4 13
e 4 14
e 4 15
e 4 17
e 4 18
e 4 20
e 4 23
e 4 25
e 4 27
e 4 28
e 4 29
e 4 30
e 4 31
e 4 32
e 4 33
e 4 36
e 4 37
e 4 38
e 4 39
e 4 45
e 4 47
e 4 49
e 4 50
e 4 51
e 4 52
e 4 53
e 4 58
e 4 59
e 4 61
e 4 62
e 4 64
e 4 65
e 4 66
e 4 67
e 4 70
e 4 71
e 4 73
e 4 80
e 4 81
e 4 84
e 4 86
e 4 88
e 4 90
e 4 91
e 4 93
e 4 94
e 4 96
e 4 97
e 4 98
e 4 100
e 5 6
e 5 8
e 5 9
e 5 12
e 5 13
e 5 14
e 5 15
e 5 16
e 5 17
e 5 20
e 5 22
e 5 23
e 5 24
e 5 25
e 5 26
e 5 27
e 5 28
e 5 31
e 5 32
e 5 33
e 5 36
e 5 37
e 5 38
e 5 41
e 5 42
e 5 43
e 5 44
e 5 47
e 5 49
e 5 50
e 5 51
e 5 52
e 5 54
e 5 55
e 5 57
e 5 58
e 5 60
e 5 63
e 5 65
e 5 66
e 5 69
e 5 70
e 5 72
e 5 75
e 5 78
e 5 80
e 5 82
e 5 85
e 5 86
e 5 88
e 5 90
e 5 91
e 5 93
e 5 94
e 5 98
e 6 11
e 6 12
e 6 13
e 6 14
e 6 16
e 6 19
e 6 20
e 6 22
e 6 23
e 6 25
e 6 26
e 6 29
e 6 30
e 6 31
e 6 32
e 6 33
e 6 34
e 6 36
e 6 37
e 6 38
e 6 39
e 6 40
e 6 42
e 6 43
e 6 46
e 6 47
e 6 48
e 6 49
e 6 52
e 6 53
e 6 56
e 6 58
e 6 60
e 6 61
e 6 63
e 6 64
e 6 66
e 6 67
e 6 68
e 6 69
e 6 70
e 6 72
e 6 75
e 6 76
e 6 80
e 6 84
e 6 88
e 6 90
e 6 91
e 6 93
e 6 96
e 6 99
e 6 100
e 7 8
e 7 9
e 7 11
e 7 12
e 7 14
e 7 15
e 7 16
e 7 18
e 7 19
e 7 20
e 7 21
e 7 22
e 7 27
e 7 28
e 7 31
e 7 33
e 7 35
e 7 37
e 7 38
e 7 42
e 7 43
e 7 44
e 7 46
e 7 47
e 7 48
e 7 49
e 7 52
e 7 53
e 7 54
e 7 57
e 7 58
e 7 61
e 7 63
e 7 65
e 7 66
e 7 67
e 7 68
e 7 69
e 7 70
e 7 71
e 7 72
e 7 75
e 7 76
e 7 81
e 7 82
e 7 85
e 7 88
e 7 90
e 7 93
e 7 94
e 7 95
e 7 97
e 7 98
e 8 14
e 8 15
e 8 16
e 8 17
e 8 18
e 8 23
e 8 24
e 8 25
e 8 26
e 8 28
e 8 30
e 8 31
e 8 32
e 8 33
e 8 34
e 8 36
e 8 39
e 8 40
e 8 41
e 8 42
e 8 43
e 8 44
e 8 45
e 8 46
e 8 48
e 8 49
e 8 50
e 8 52
e 8 53
e 8 55
e 8 56
e 8 57
e 8 60
e 8 61
e 8 65
e 8 66
e 8 69
e 8 70
e 8 71
e 8 73
e 8 74
e 8 76
e 8 78
e 8 79
e 8 83
e 8 84
e 8 85
e 8 86
e 8 87
e 8 91
e 8 92
e 8 98
e 9 10
e 9 11
e 9 13
e 9 18
e 9 20
e 9 22
e 9 23
e 9 24
e 9 26
e 9 29
e 9 31
e 9 33
e 9 34
e 9 35
e 9 37
e 9 39
e 9 40
e 9 43
e 9 44
e 9 46
e 9 47
e 9 49
e 9 54
e 9 56
e 9 57
e 9 58
e 9 59
e 9 60
e 9 62
e 9 65
e 9 66
e 9 68
e 9 69
e 9 70
e 9 71
e 9 72
e 9 74
e 9 75
e 9 76
e 9 77
e 9 80
e 9 82
e 9 83
e 9 85
e 9 87
e 9 88
e 9 94
e 9 95
e 9 96
e 9 98
e 10 11
e 10 12
e 10 13
e 10 15
e 10 17
e 10 18
e 10 19
e 10 20
e 10 23
e 10 24
e 10 25
e 10 26
e 10 28
e 10 29
e 10 30
e 10 31
e 10 34
e 10 35
e 10 37
e 10 39
e 10 40
e 10 41
e 10 42
e 10 43
e 10 44
e 10 46
e 10 47
e 10 48
e 10 49
e 10 51
e 10 53
e 10 54
e 10 55
e 10 56
e 10 58
e 10 59
e 10 62
e 10 65
e 10 67
e 10 68
e 10 69
e 10 74
e 10 76
e 10 78
e 10 79
e 10 80
e 10 81
e 10 83
e 10 84
e 10 85
e 10 89
e 10 96
e 11 12
e 11 13
e 11 15
e 11 18
e 11 20
e 11 21
e 11 22
e 11 23
e 11 24
e 11 26
e 11 27
e 11 28
e 11 30
e 11 31
e 11 41
e 11 43
e 11 44
e 11 46
e 11 48
e 11 49
e 11 50
e 11 52
e 11 54
e 11 55
e 11 57
e 11 59
e 11 60
e 11 63
e 11 64
e 11 68
e 11 69
e 11 70
e 11 71
e 11 72
e 11 73
e 11 76
e 11 77
e 11 79
e 11 80
e 11 81
e 11 82
e 11 84
e 11 85
e 11 86
e 11 89
e 11 90
e 11 92
e 11 94
e 11 100
e 12 14
e 12 17
e 12 18
e 12 20
e 12 21
e 12 22
e 12 24
e 12 25
e 12 26
e 12 27
e 12 30
e 12 31
e 12 32
e 12 33
e 12 34
e 12 35
e 12 37
e 12 40
e 12 41
e 12 42
e 12 43
e 12 44
e 12 45
e 12 46
e 12 47
e 12 48
e 12 50
e 12 51
e 12 54
e 12 56
e 12 62
e 12 65
e 12 67
e 12 68
e 12 69
e 12 70
e 12 75
e 12 78
e 12 81
e 12 82
e 12 83
e 12 84
e 12 86
e 12 88
e 12 89
e 12 91
e 12 92
e 12 94
e 12 98
e 13 15
e 13 16
e 13 18
e 13 19
e 13 20
e 13 22
e 13 24
e 13 25
e 13 26
e 13 27
e 13 29
e 13 30
e 13 32
e 13 35
e 13 37
e 13 38
e 13 42
e 13 43
e 13 46
e 13 47
e 13 48
e 13 50
e 13 52
e 13 53
e 13 54
e 13 56
e 13 57
e 13 58
e 13 60
e 13 61
e 13 64
e 13 65
e 13 68
e 13 69
e 13 74
e 13 78
e 13 79
e 13 80
e 13 81
e 13 82
e 13 86
e 13 87
e 13 89
e 13 91
e 13 94
e 13 95
e 13 98
e 14 16
e 14 18
e 14 19
e 14 20
e 14 21
e 14 23
e 14 24
e 14 25
e 14 26
e 14 29
e 14 30
e 14 31
e 14 33
e 14 34
e 14 35
e 14 36
e 14 37
e 14 39
e 14 40
e 14 41
e 14 42
e 14 44
e 14 47
e 14 50
e 14 51
e 14 52
e 14 56
e 14 58
e 14 59
e 14 60
e 14 62
e 14 65
e 14 69
e 14 70
e 14 71
e 14 72
e 14 76
e 14 77
e 14 79
e 14 84
e 14 85
e 14 86
e 14 88
e 14 91
e 14 92
e 14 98
e 14 100
e 15 17
e 15 22
e 15 23
e 15 24
e 15 27
e 15 28
e 15 29
e 15 31
e 15 32
e 15 36
e 15 38
e 15 42
e 15 43
e 15 44
e 15 45
e 15 46
e 15 47
e 15 48
e 15 50
e 15 51
e 15 52
e 15 53
e 15 54
e 15 56
e 15 57
e 15 58
e 15 59
e 15 62
e 15 65
e 15 66
e 15 69
e 15 71
e 15 75
e 15 76
e 15 78
e 15 80
e 15 81
e 15 82
e 15 85
e 15 89
e 15 90
e 15 94
e 15 96
e 15 97
e 15 98
e 15 99
e 16 17
e 16 18
e 16 19
e 16 20
e 16 23
e 16 26
e 16 27
e 16 30
e 16 31
e 16 33
e 16 36
e 16 38
e 16 40
e 16 41
e 16 44
e 16 49
e 16 50
e 16 52
e 16 54
e 16 55
e 16 56
e 16 57
e 16 59
e 16 60
e 16 61
e 16 62
e 16 65
e 16 66
e 16 67
e 16 68
e 16 70
e 16 71
e 16 72
e 16 73
e 16 74
e 16 75
e 16 77
e 16 79
e 16 82
e 16 83
e 16 85
e 16 88
e 16 89
e 16 90
e 16 92
e 16 95
e 16 96
e 17 18
e 17 19
e 17 20
e 17 21
e 17 23
e 17 24
e 17 26
e 17 27
e 17 28
e 17 30
e 17 31
e 17 33
e 17 34
e 17 35
e 17 38
e 17 39
e 17 40
e 17 43
e 17 45
e 17 47
e 17 48
e 17 49
e 17 50
e 17 53
e 17 56
e 17 57
e 17 61
e 17 62
e 17 63
e 17 64
e 17 65
e 17 66
e 17 67
e 17 68
e 17 70
e 17 71
e 17 76
e 17 77
e 17 81
e 17 83
e 17 84
e 17 86
e 17 89
e 17 92
e 17 95
e 18 19
e 18 20
e 18 21
e 18 22
e 18 23
e 18 26
e 18 27
e 18 31
e 18 33
e 18 35
e 18 36
e 18 37
e 18 38
e 18 43
e 18 45
e 18 46
e 18 50
e 18 51
e 18 52
e 18 53
e 18 58
e 18 59
e 18 60
e 18 62
e 18 63
e 18 64
e 18 65
e 18 67
e 18 70
e 18 71
e 18 72
e 18 74
e 18 75
e 18 76
e 18 79
e 18 81
e 18 83
e 18 86
e 18 89
e 18 91
e 18 92
e 18 95
e 19 20
e 19 21
e 19 22
e 19 23
e 19 24
e 19 25
e 19 26
e 19 27
e 19 29
e 19 30
e 19 33
e 19 35
e 19 37
e 19 38
e 19 39
e 19 46
e 19 47
e 19 48
e 19 50
e 19 55
e 19 57
e 19 58
e 19 59
e 19 60
e 19 61
e 19 62
e 19 63
e 19 66
e 19 67
e 19 72
e 19 76
e 19 79
e 19 80
e 19 82
e 19 84
e 19 87
e 19 92
e 19 94
e 19 95
e 19 96
e 19 98
e 19 99
e 19 100
e 20 24
e 20 25
e 20 27
e 20 39
e 20 41
e 20 44
e 20 45
e 20 46
e 20 48
e 20 49
e 20 50
e 20 53
e 20 54
e 20 56
e 20 58
e 20 59
e 20 60
e 20 61
e 20 64
e 20 70
e 20 73
e 20 75
e 20 76
e 20 77
e 20 80
e 20 81
e 20 82
e 20 83
e 20 84
e 20 86
e 20 87
e 20 90
e 20 92
e 20 95
e 20 98
e 20 99
e 20 100
e 21 22
e 21 24
e 21 25
e 21 26
e 21 27
e 21 28
e 21 30
e 21 31
e 21 32
e 21 33
e 21 37
e 21 39
e 21 42
e 21 45
e 21 48
e 21 50
e 21 53
e 21 54
e 21 55
e 21 56
e 21 59
e 21 60
e 21 61
e 21 63
e 21 64
e 21 66
e 21 69
e 21 70
e 21 71
e 21 74
e 21 76
e 21 78
e 21 79
e 21 80
e 21 83
e 21 85
e 21 86
e 21 87
e 21 88
e 21 89
e 21 91
e 21 93
e 21 94
e 21 99
e 21 100
e 22 23
e 22 24
e 22 25
e 22 26
e 22 27
e 22 28
e 22 32
e 22 34
e 22 35
e 22 36
e 22 37
e 22 39
e 22 41
e 22 44
e 22 47
e 22 48
e 22 49
e 22 50
e 22 51
e 22 53
e 22 55
e 22 56
e 22 60
e 22 61
e 22 62
e 22 63
e 22 66
e 22 70
e 22 72
e 22 75
e 22 78
e 22 79
e 22 81
e 22 82
e 22 85
e 22 87
e 22 88
e 22 89
e 22 91
e 22 94
e 22 96
e 22 98
e 23 25
e 23 29
e 23 32
e 23 36
e 23 38
e 23 40
e 23 43
e 23 44
e 23 50
e 23 51
e 23 53
e 23 55
e 23 58
e 23 61
e 23 63
e 23 64
e 23 65
e 23 66
e 23 68
e 23 70
e 23 71
e 23 73
e 23 75
e 23 76
e 23 78
e 23 81
e 23 83
e 23 84
e 23 85
e 23 88
e 23 90
e 23 92
e 23 93
e 23 94
e 23 95
e 23 98
e 23 99
e 24 28
e 24 30
e 24 33
e 24 34
e 24 35
e 24 39
e 24 40
e 24 42
e 24 43
e 24 44
e 24 48
e 24 51
e 24 53
e 24 56
e 24 57
e 24 60
e 24 65
e 24 67
e 24 68
e 24 69
e 24 73
e 24 74
e 24 75
e 24 76
e 24 78
e 24 79
e 24 83
e 24 84
e 24 86
e 24 87
e 24 88
e 24 90
e 24 91
e 24 92
e 24 93
e 24 95
e 24 96
e 25 28
e 25 30
e 25 32
e 25 33
e 25 35
e 25 36
e 25 38
e 25 40
e 25 42
e 25 43
e 25 45
e 25 47
e 25 48
e 25 49
e 25 51
e 25 53
e 25 54
e 25 55
e 25 56
e 25 57
e 25 58
e 25 63
e 25 64
e 25 65
e 25 66
e 25 73
e 25 74
e 25 75
e 25 77
e 25 78
e 25 79
e 25 83
e 25 85
e 25 86
e 25 89
e 25 95
e 25 96
e 25 97
e 25 99
e 25 100
e 26 27
e 26 28
e 26 29
e 26 30
e 26 33
e 26 34
e 26 35
e 26 38
e 26 42
e 26 45
e 26 46
e 26 49
e 26 50
e 26 51
e 26 59
e 26 60
e 26 63
e 26 64
e 26 65
e 26 66
e 26 68
e 26 69
e 26 70
e 26 71
e 26 72
e 26 76
e 26 81
e 26 83
e 26 84
e 26 86
e 26 91
e 26 93
e 26 94
e 26 95
e 26 96
e 26 97
e 26 98
e 27 29
e 27 30
e 27 33
e 27 35
e 27 36
e 27 39
e 27 40
e 27 41
e 27 42
e 27 44
e 27 45
e 27 48
e 27 49
e 27 52
e 27 54
e 27 55
e 27 56
e 27 58
e 27 59
e 27 62
e 27 63
e 27 67
e 27 68
e 27 74
e 27 78
e 27 79
e 27 80
e 27 82
e 27 83
e 27 84
e 27 86
e 27 87
e 27 89
e 27 93
e 27 97
e 27 100
e 28 31
e 28 32
e 28 36
e 28 40
e 28 41
e 28 42
e 28 43
e 28 44
e 28 45
e 28 46
e 28 49
e 28 50
e 28 51
e 28 52
e 28 53
e 28 55
e 28 56
e 28 59
e 28 61
e 28 63
e 28 65
e 28 66
e 28 67
e 28 68
e 28 70
e 28 76
e 28 81
e 28 82
e 28 83
e 28 86
e 28 87
e 28 89
e 28 91
e 28 93
e 28 94
e 28 95
e 28 97
e 28 99
e 29 34
e 29 35
e 29 36
e 29 38
e 29 39
e 29 40
e 29 42
e 29 43
e 29 45
e 29 47
e 29 50
e 29 51
e 29 54
e 29 58
e 29 59
e 29 60
e 29 61
e 29 62
e 29 64
e 29 65
e 29 66
e 29 68
e 29 69
e 29 71
e 29 72
e 29 73
e 29 77
e 29 78
e 29 79
e 29 80
e 29 82
e 29 84
e 29 85
e 29 86
e 29 88
e 29 89
e 29 91
e 29 93
e 29 95
e 29 97
e 30 31
e 30 33
e 30 34
e 30 36
e 30 37
e 30 38
e 30 39
e 30 42
e 30 45
e 30 47
e 30 48
e 30 51
e 30 52
e 30 55
e 30 58
e 30 61
e 30 62
e 30 65
e 30 67
e 30 68
e 30 69
e 30 71
e 30 72
e 30 73
e 30 75
e 30 80
e 30 81
e 30 82
e 30 85
e 30 87
e 30 89
e 30 91
e 30 93
e 30 94
e 30 99
e 31 33
e 31 34
e 31 35
e 31 38
e 31 39
e 31 40
e 31 41
e 31 42
e 31 45
e 31 46
e 31 48
e 31 49
e 31 50
e 31 52
e 31 53
e 31 54
e 31 55
e 31 56
e 31 62
e 31 63
e 31 64
e 31 65
e 31 66
e 31 72
e 31 77
e 31 78
e 31 80
e 31 83
e 31 86
e 31 91
e 31 93
e 31 96
e 31 97
e 31 100
e 32 33
e 32 34
e 32 35
e 32 38
e 32 39
e 32 41
e 32 44
e 32 45
e 32 46
e 32 48
e 32 51
e 32 52
e 32 53
e 32 54
e 32 56
e 32 57
e 32 60
e 32 61
e 32 63
e 32 65
e 32 67
e 32 68
e 32 69
e 32 72
e 32 73
e 32 74
e 32 75
e 32 76
e 32 79
e 32 81
e 32 82
e 32 85
e 32 89
e 32 93
e 32 96
e 32 97
e 32 98
e 33 36
e 33 37
e 33 38
e 33 40
e 33 41
e 33 43
e 33 46
e 33 49
e 33 51
e 33 53
e 33 55
e 33 57
e 33 59
e 33 61
e 33 67
e 33 68
e 33 69
e 33 73
e 33 76
e 33 78
e 33 82
e 33 84
e 33 85
e 33 86
e 33 87
e 33 88
e 33 90
e 33 94
e 33 95
e 33 97
e 33 98
e 33 99
e 34 35
e 34 37
e 34 39
e 34 40
e 34 42
e 34 44
e 34 45
e 34 47
e 34 49
e 34 50
e 34 53
e 34 54
e 34 55
e 34 57
e 34 58
e 34 59
e 34 60
e 34 61
e 34 63
e 34 66
e 34 67
e 34 68
e 34 70
e 34 72
e 34 73
e 34 74
e 34 78
e 34 79
e 34 81
e 34 86
e 34 89
e 34 92
e 34 93
e 34 95
e 34 96
e 34 97
e 34 98
e 35 36
e 35 37
e 35 38
e 35 39
e 35 41
e 35 42
e 35 43
e 35 44
e 35 45
e 35 46
e 35 49
e 35 50
e 35 54
e 35 57
e 35 58
e 35 60
e 35 62
e 35 63
e 35 67
e 35 69
e 35 74
e 35 75
e 35 77
e 35 79
e 35 86
e 35 87
e 35 88
e 35 92
e 35 93
e 35 95
e 35 96
e 35 98
e 36 38
e 36 41
e 36 42
e 36 43
e 36 46
e 36 47
e 36 49
e 36 51
e 36 52
e 36 53
e 36 56
e 36 57
e 36 58
e 36 59
e 36 61
e 36 62
e 36 63
e 36 65
e 36 67
e 36 72
e 36 73
e 36 76
e 36 79
e 36 81
e 36 83
e 36 88
e 36 89
e 36 90
e 36 91
e 36 93
e 36 95
e 36 99
e 36 100
e 37 39
e 37 40
e 37 43
e 37 45
e 37 47
e 37 48
e 37 49
e 37 50
e 37 59
e 37 61
e 37 62
e 37 63
e 37 65
e 37 66
e 37 68
e 37 69
e 37 70
e 37 71
e 37 72
e 37 73
e 37 76
e 37 77
e 37 79
e 37 80
e 37 81
e 37 83
e 37 86
e 37 88
e 37 89
e 37 91
e 37 94
e 37 96
e 37 98
e 38 39
e 38 40
e 38 41
e 38 42
e 38 47
e 38 50
e 38 51
e 38 54
e 38 59
e 38 61
e 38 62
e 38 64
e 38 65
e 38 66
e 38 67
e 38 70
e 38 73
e 38 74
e 38 76
e 38 77
e 38 80
e 38 84
e 38 87
e 38 89
e 38 91
e 38 92
e 38 96
e 38 97
e 38 100
e 39 41
e 39 42
e 39 44
e 39 45
e 39 52
e 39 55
e 39 57
e 39 61
e 39 62
e 39 63
e 39 64
e 39 68
e 39 70
e 39 71
e 39 72
e 39 74
e 39 77
e 39 78
e 39 79
e 39 80
e 39 81
e 39 82
e 39 86
e 39 88
e 39 89
e 39 91
e 39 93
e 39 96
e 40 43
e 40 46
e 40 51
e 40 52
e 40 55
e 40 56
e 40 58
e 40 59
e 40 60
e 40 62
e 40 63
e 40 64
e 40 65
e 40 66
e 40 67
e 40 68
e 40 69
e 40 70
e 40 74
e 40 78
e 40 80
e 40 85
e 40 86
e 40 87
e 40 88
e 40 89
e 40 92
e 40 93
e 40 94
e 40 96
e 41 44
e 41 46
e 41 47
e 41 48
e 41 50
e 41 51
e 41 54
e 41 55
e 41 56
e 41 57
e 41 58
e 41 59
e 41 60
e 41 62
e 41 63
e 41 64
e 41 65
e 41 67
e 41 69
e 41 70
e 41 71
e 41 73
e 41 78
e 41 80
e 41 81
e 41 82
e 41 88
e 41 89
e 41 92
e 41 97
e 41 98
e 42 43
e 42 44
e 42 47
e 42 50
e 42 52
e 42 53
e 42 54
e 42 55
e 42 56
e 42 57
e 42 58
e 42 60
e 42 65
e 42 66
e 42 68
e 42 70
e 42 73
e 42 77
e 42 78
e 42 83
e 42 85
e 42 87
e 42 89
e 42 90
e 42 91
e 42 100
e 43 44
e 43 46
e 43 51
e 43 52
e 43 53
e 43 55
e 43 56
e 43 61
e 43 62
e 43 63
e 43 67
e 43 68
e 43 69
e 43 73
e 43 74
e 43 77
e 43 80
e 43 82
e 43 83
e 43 85
e 43 87
e 43 88
e 43 90
e 43 95
e 43 96
e 43 99
e 44 46
e 44 50
e 44 51
e 44 52
e 44 53
e 44 57
e 44 59
e 44 60
e 44 61
e 44 62
e 44 63
e 44 64
e 44 65
e 44 68
e 44 69
e 44 75
e 44 77
e 44 81
e 44 82
e 44 87
e 44 89
e 44 90
e 44 97
e 44 99
e 44 100
e 45 47
e 45 48
e 45 49
e 45 51
e 45 55
e 45 56
e 45 57
e 45 58
e 45 62
e 45 63
e 45 64
e 45 65
e 45 67
e 45 69
e 45 74
e 45 75
e 45 76
e 45 77
e 45 78
e 45 85
e 45 88
e 45 90
e 45 92
e 45 95
e 45 96
e 45 97
e 45 98
e 45 99
e 46 47
e 46 49
e 46 52
e 46 55
e 46 56
e 46 57
e 46 60
e 46 61
e 46 63
e 46 64
e 46 65
e 46 66
e 46 68
e 46 69
e 46 71
e 46 73
e 46 77
e 46 79
e 46 80
e 46 84
e 46 85
e 46 87
e 46 89
e 46 90
e 46 92
e 46 94
e 46 96
e 47 48
e 47 49
e 47 50
e 47 52
e 47 53
e 47 54
e 47 55
e 47 58
e 47 60
e 47 61
e 47 63
e 47 68
e 47 69
e 47 71
e 47 72
e 47 76
e 47 81
e 47 82
e 47 83
e 47 88
e 47 90
e 47 92
e 47 95
e 47 97
e 47 100
e 48 49
e 48 51
e 48 53
e 48 55
e 48 57
e 48 61
e 48 64
e 48 66
e 48 67
e 48 70
e 48 74
e 48 76
e 48 78
e 48 79
e 48 80
e 48 81
e 48 83
e 48 84
e 48 85
e 48 88
e 48 90
e 48 92
e 48 94
e 48 95
e 48 96
e 48 97
e 48 98
e 49 50
e 49 52
e 49 55
e 49 56
e 49 57
e 49 59
e 49 60
e 49 61
e 49 62
e 49 68
e 49 69
e 49 70
e 49 75
e 49 78
e 49 79
e 49 80
e 49 81
e 49 85
e 49 86
e 49 90
e 49 92
e 49 97
e 49 100
e 50 51
e 50 53
e 50 56
e 50 57
e 50 60
e 50 62
e 50 66
e 50 67
e 50 69
e 50 71
e 50 75
e 50 76
e 50 77
e 50 78
e 50 82
e 50 89
e 50 91
e 50 92
e 50 98
e 51 53
e 51 55
e 51 60
e 51 65
e 51 66
e 51 68
e 51 69
e 51 70
e 51 71
e 51 74
e 51 75
e 51 77
e 51 79
e 51 80
e 51 81
e 51 85
e 51 87
e 51 88
e 51 89
e 51 90
e 51 92
e 51 93
e 51 97
e 52 55
e 52 56
e 52 58
e 52 59
e 52 60
e 52 62
e 52 63
e 52 67
e 52 71
e 52 72
e 52 74
e 52 77
e 52 78
e 52 80
e 52 82
e 52 83
e 52 84
e 52 87
e 52 89
e 52 90
e 52 92
e 52 94
e 52 96
e 52 100
e 53 57
e 53 58
e 53 59
e 53 60
e 53 62
e 53 65
e 53 70
e 53 71
e 53 76
e 53 79
e 53 81
e 53 83
e 53 84
e 53 88
e 53 91
e 53 92
e 53 93
e 53 95
e 53 97
e 53 100
e 54 56
e 54 57
e 54 58
e 54 59
e 54 60
e 54 62
e 54 63
e 54 65
e 54 71
e 54 74
e 54 75
e 54 80
e 54 81
e 54 82
e 54 87
e 54 88
e 54 89
e 54 91
e 54 92
e 54 93
e 54 94
e 54 96
e 54 99
e 54 100
e 55 57
e 55 58
e 55 61
e 55 63
e 55 64
e 55 65
e 55 66
e 55 67
e 55 71
e 55 74
e 55 75
e 55 76
e 55 79
e 55 80
e 55 82
e 55 90
e 55 93
e 55 95
e 55 96
e 56 59
e 56 60
e 56 61
e 56 67
e 56 68
e 56 71
e 56 73
e 56 75
e 56 76
e 56 79
e 56 80
e 56 83
e 56 88
e 56 90
e 56 92
e 56 94
e 56 96
e 56 100
e 57 58
e 57 59
e 57 60
e 57 61
e 57 64
e 57 67
e 57 68
e 57 69
e 57 70
e 57 71
e 57 72
e 57 73
e 57 74
e 57 77
e 57 80
e 57 91
e 57 95
e 57 99
e 58 65
e 58 67
e 58 68
e 58 69
e 58 72
e 58 73
e 58 76
e 58 77
e 58 83
e 58 84
e 58 86
e 58 90
e 58 92
e 58 94
e 58 96
e 58 97
e 58 99
e 58 100
e 59 62
e 59 64
e 59 71
e 59 73
e 59 74
e 59 75
e 59 77
e 59 80
e 59 81
e 59 82
e 59 84
e 59 86
e 59 89
e 59 94
e 59 95
e 59 98
e 59 99
e 59 100
e 60 62
e 60 63
e 60 69
e 60 73
e 60 75
e 60 76
e 60 79
e 60 80
e 60 81
e 60 82
e 60 83
e 60 84
e 60 87
e 60 92
e 60 93
e 61 64
e 61 69
e 61 70
e 61 74
e 61 75
e 61 76
e 61 77
e 61 78
e 61 79
e 61 82
e 61 87
e 61 89
e 61 93
e 61 97
e 61 98
e 62 63
e 62 64
e 62 71
e 62 72
e 62 74
e 62 75
e 62 78
e 62 81
e 62 83
e 62 84
e 62 89
e 62 93
e 62 98
e 63 64
e 63 66
e 63 68
e 63 75
e 63 76
e 63 79
e 63 80
e 63 85
e 63 90
e 63 98
e 63 99
e 63 100
e 64 67
e 64 68
e 64 69
e 64 70
e 64 72
e 64 75
e 64 77
e 64 78
e 64 79
e 64 80
e 64 83
e 64 84
e 64 87
e 64 88
e 64 90
e 64 92
e 64 95
e 64 98
e 64 99
e 64 100
e 65 69
e 65 73
e 65 77
e 65 78
e 65 82
e 65 90
e 65 91
e 65 93
e 65 94
e 65 100
e 66 69
e 66 70
e 66 71
e 66 73
e 66 74
e 66 77
e 66 79
e 66 82
e 66 84
e 66 85
e 66 86
e 66 87
e 66 89
e 66 90
e 66 91
e 66 95
e 66 97
e 66 98
e 67 68
e 67 69
e 67 70
e 67 71
e 67 72
e 67 77
e 67 78
e 67 79
e 67 84
e 67 85
e 67 87
e 67 88
e 67 90
e 67 91
e 67 93
e 67 100
e 68 70
e 68 71
e 68 80
e 68 82
e 68 85
e 68 88
e 68 90
e 68 91
e 68 92
e 68 94
e 68 97
e 69 71
e 69 80
e 69 81
e 69 82
e 69 87
e 69 91
e 69 97
e 69 100
e 70 72
e 70 73
e 70 75
e 70 82
e 70 83
e 70 85
e 70 87
e 70 88
e 70 89
e 70 92
e 70 95
e 70 99
e 70 100
e 71 73
e 71 74
e 71 77
e 71 81
e 71 84
e 71 89
e 71 91
e 71 94
e 71 96
e 71 98
e 71 99
e 71 100
e 72 73
e 72 74
e 72 75
e 72 76
e 72 78
e 72 80
e 72 82
e 72 83
e 72 84
e 72 87
e 72 88
e 72 90
e 72 91
e 72 93
e 72 94
e 72 96
e 72 97
e 72 99
e 73 75
e 73 79
e 73 81
e 73 82
e 73 86
e 73 87
e 73 88
e 73 89
e 73 92
e 73 93
e 73 94
e 73 95
e 73 98
e 73 99
e 74 75
e 74 76
e 74 77
e 74 78
e 74 79
e 74 81
e 74 82
e 74 84
e 74 85
e 74 86
e 74 87
e 74 90
e 74 92
e 74 94
e 74 95
e 74 99
e 75 77
e 75 80
e 75 82
e 75 83
e 75 85
e 75 87
e 75 88
e 75 91
e 75 93
e 75 98
e 75 99
e 76 77
e 76 78
e 76 79
e 76 84
e 76 87
e 76 89
e 76 95
e 76 97
e 76 98
e 77 78
e 77 83
e 77 85
e 77 86
e 77 88
e 77 89
e 77 90
e 77 91
e 77 93
e 77 94
e 77 95
e 77 98
e 77 99
e 78 79
e 78 84
e 78 85
e 78 86
e 78 87
e 78 91
e 78 93
e 78 97
e 78 98
e 78 100
e 79 81
e 79 85
e 79 88
e 79 90
e 79 91
e 79 92
e 79 99
e 80 81
e 80 83
e 80 84
e 80 87
e 80 91
e 80 92
e 80 93
e 81 83
e 81 84
e 81 94
e 81 96
e 81 97
e 81 99
e 81 100
e 82 85
e 82 87
e 82 89
e 82 93
e 82 95
e 82 96
e 82 99
e 83 85
e 83 86
e 83 90
e 83 93
e 83 94
e 83 96
e 83 97
e 83 98
e 84 86
e 84 89
e 84 90
e 84 93
e 84 96
e 84 97
e 84 98
e 84 99
e 84 100
e 85 86
e 85 88
e 85 91
e 85 94
e 85 95
e 85 97
e 85 98
e 85 99
e 86 87
e 86 90
e 86 94
e 86 95
e 86 96
e 86 99
e 86 100
e 87 90
e 87 93
e 87 94
e 87 100
e 88 89
e 88 92
e 88 93
e 88 96
e 88 99
e 89 92
e 89 97
e 90 96
e 90 100
e 91 94
e 91 95
e 91 96
e 91 98
e 91 99
e 92 96
e 92 97
e 92 98
e 92 100
e 93 94
e 93 99
e 94 97
e 95 97
e 95 100
e 96 97
n 2 1
n 4 1
n 5 1
n 6 1
n 7 1
n 9 1
n 12 1
n 17 1
n 20 1
n 23 1
n 26 1
n 28 1
n 30 1
n 31 1
n 33 1
n 38 1
n 40 1
n 41 1
n 42 1
n 43 1
n 44 1
n 47 1
n 50 1
n 52 1
n 54 1
n 57 1
n 58 1
n 59 1
n 62 1
n 65 1
n 68 1
n 69 1
n 70 1
n 71 1
n 72 1
n 75 1
n 77 1
n 79 2
n 80 1
n 82 1
n 83 1
n 84 1
n 86 1
n 87 1
n 89 1
n 93 1
n 95 1
n 97 1
n 98 1
n 100 1
